NAME : netgen20-5_30
COMMENT : Generated using the function generateClusteredNetwork from the R-package netgen (Bossek,2015) - Number of clusters: 5
TYPE : TSP
DIMENSION : 20
EDGE_WEIGHT_TYPE : EUC_2D
NODE_COORD_SECTION
1 62.4418854688 67.9393186862
2 59.2267313889 61.2677344839
3 62.6685846505 64.8867274151
4 63.8880842691 61.269672061
5 19.980486649 89.6586291218
6 25.1075745641 95.6115176521
7 17.0078338978 96.7477153861
8 17.7101863359 97.3416398214
9 46.9465418603 3.6286678195
10 60.5872754151 2.74101519
11 47.2352757613 7.579582282
12 53.1578433506 0.4172798388
13 85.6995268719 37.4472344639
14 77.6182992615 21.3539105668
15 87.9354033137 24.9928204852
16 88.5048329784 48.8430800277
17 0.6280387208 28.3321501826
18 15.5780569229 46.6789804266
19 1.5704269961 51.5370770434
20 12.1764643873 44.3351283942
EOF
